
(set-logic ALL) 

(declare-datatype MyList ((Nil) (Cons (head Real) (tail MyList)) )) 
(declare-fun l0 () MyList) 
(declare-fun l1 () MyList) 
(declare-fun l2 () MyList) 
(declare-fun l3 () MyList) 
(declare-fun i0 () Real) 
(declare-fun i1 () Real) 
(assert (= l0 l1) )
(assert (and (= l2 Nil) (= l0 Nil) (is-Nil Nil)) )
(assert (= l3 Nil) )
(assert (or (= l1 Nil) (is-Nil l3) (is-Nil l1) (= l3 l3)) )
(assert (is-Nil Nil) )
(assert (= l0 Nil) )
(assert (= l1 Nil) )
(assert (= l3 l0) )
(check-sat)
